
(set-logic HORN)
(declare-fun Z_200 () Int)
(declare-fun S_70 (Int) Int)
(declare-fun Z_196 () Int)
(declare-fun S_69 (Int) Int)
(declare-fun diseqInt (Int Int) Bool)
(declare-fun unS_73 (Int Int) Bool)
(declare-fun isZ_70 (Int) Bool)
(declare-fun isS_70 (Int) Bool)
(assert (forall ((x_2002 Int))
	(unS_73 x_2002 (S_70 x_2002))))
(assert (isZ_70 Z_200))
(assert (forall ((x_2004 Int))
	(isS_70 (S_70 x_2004))))
(assert (forall ((x_2005 Int))
	(diseqInt Z_200 (S_70 x_2005))))
(assert (forall ((x_2006 Int))
	(diseqInt (S_70 x_2006) Z_200)))
(assert (forall ((x_2007 Int) (x_2008 Int))
	(=> (diseqInt x_2007 x_2008) (diseqInt (S_70 x_2007) (S_70 x_2008)))))
(declare-fun add_36 (Int Int Int) Bool)
(declare-fun minus_36 (Int Int Int) Bool)
(declare-fun le_36 (Int Int) Bool)
(declare-fun ge_36 (Int Int) Bool)
(declare-fun lt_36 (Int Int) Bool)
(declare-fun gt_36 (Int Int) Bool)
(declare-fun mult_36 (Int Int Int) Bool)
(declare-fun div_36 (Int Int Int) Bool)
(declare-fun mod_36 (Int Int Int) Bool)
(assert (forall ((y_159 Int))
	(add_36 y_159 Z_200 y_159)))
(assert (forall ((x_1955 Int) (y_159 Int) (r_36 Int))
	(=> (add_36 r_36 x_1955 y_159) (add_36 (S_70 r_36) (S_70 x_1955) y_159))))
(assert (forall ((y_159 Int))
	(minus_36 Z_200 Z_200 y_159)))
(assert (forall ((x_1955 Int) (y_159 Int) (r_36 Int))
	(=> (minus_36 r_36 x_1955 y_159) (minus_36 (S_70 r_36) (S_70 x_1955) y_159))))
(assert (forall ((y_159 Int))
	(le_36 Z_200 y_159)))
(assert (forall ((x_1955 Int) (y_159 Int))
	(=> (le_36 x_1955 y_159) (le_36 (S_70 x_1955) (S_70 y_159)))))
(assert (forall ((y_159 Int))
	(ge_36 y_159 Z_200)))
(assert (forall ((x_1955 Int) (y_159 Int))
	(=> (ge_36 x_1955 y_159) (ge_36 (S_70 x_1955) (S_70 y_159)))))
(assert (forall ((y_159 Int))
	(lt_36 Z_200 (S_70 y_159))))
(assert (forall ((x_1955 Int) (y_159 Int))
	(=> (lt_36 x_1955 y_159) (lt_36 (S_70 x_1955) (S_70 y_159)))))
(assert (forall ((y_159 Int))
	(gt_36 (S_70 y_159) Z_200)))
(assert (forall ((x_1955 Int) (y_159 Int))
	(=> (gt_36 x_1955 y_159) (gt_36 (S_70 x_1955) (S_70 y_159)))))
(assert (forall ((y_159 Int))
	(mult_36 Z_200 Z_200 y_159)))
(assert (forall ((x_1955 Int) (y_159 Int) (r_36 Int) (z_201 Int))
	(=> (and (mult_36 r_36 x_1955 y_159) (add_36 z_201 r_36 y_159)) (mult_36 z_201 (S_70 x_1955) y_159))))
(assert (forall ((x_1955 Int) (y_159 Int))
	(=> (lt_36 x_1955 y_159) (div_36 Z_200 x_1955 y_159))))
(assert (forall ((x_1955 Int) (y_159 Int) (r_36 Int) (z_201 Int))
	(=> (and (ge_36 x_1955 y_159) (minus_36 z_201 x_1955 y_159) (div_36 r_36 z_201 y_159)) (div_36 (S_70 r_36) x_1955 y_159))))
(assert (forall ((x_1955 Int) (y_159 Int))
	(=> (lt_36 x_1955 y_159) (mod_36 x_1955 x_1955 y_159))))
(assert (forall ((x_1955 Int) (y_159 Int) (r_36 Int) (z_201 Int))
	(=> (and (ge_36 x_1955 y_159) (minus_36 z_201 x_1955 y_159) (mod_36 r_36 z_201 y_159)) (mod_36 r_36 x_1955 y_159))))
(declare-datatypes ((pair_12 0)) (((pair_13 (projpair_24 Int) (projpair_25 Int)))))
(declare-fun diseqpair_6 (pair_12 pair_12) Bool)
(declare-fun projpair_26 (Int pair_12) Bool)
(declare-fun projpair_27 (Int pair_12) Bool)
(declare-fun ispair_6 (pair_12) Bool)
(assert (forall ((x_1956 Int) (x_1957 Int))
	(projpair_26 x_1956 (pair_13 x_1956 x_1957))))
(assert (forall ((x_1956 Int) (x_1957 Int))
	(projpair_27 x_1957 (pair_13 x_1956 x_1957))))
(assert (forall ((x_1959 Int) (x_1960 Int))
	(ispair_6 (pair_13 x_1959 x_1960))))
(assert (forall ((x_1961 Int) (x_1962 Int) (x_1963 Int) (x_1964 Int))
	(=> (diseqInt x_1961 x_1963) (diseqpair_6 (pair_13 x_1961 x_1962) (pair_13 x_1963 x_1964)))))
(assert (forall ((x_1961 Int) (x_1962 Int) (x_1963 Int) (x_1964 Int))
	(=> (diseqInt x_1962 x_1964) (diseqpair_6 (pair_13 x_1961 x_1962) (pair_13 x_1963 x_1964)))))
(declare-datatypes ((list_33 0)) (((nil_33) (cons_33 (head_66 Int) (tail_66 list_33)))))
(declare-fun diseqlist_33 (list_33 list_33) Bool)
(declare-fun head_68 (Int list_33) Bool)
(declare-fun tail_68 (list_33 list_33) Bool)
(declare-fun isnil_33 (list_33) Bool)
(declare-fun iscons_33 (list_33) Bool)
(assert (forall ((x_1966 Int) (x_1967 list_33))
	(head_68 x_1966 (cons_33 x_1966 x_1967))))
(assert (forall ((x_1966 Int) (x_1967 list_33))
	(tail_68 x_1967 (cons_33 x_1966 x_1967))))
(assert (isnil_33 nil_33))
(assert (forall ((x_1969 Int) (x_1970 list_33))
	(iscons_33 (cons_33 x_1969 x_1970))))
(assert (forall ((x_1971 Int) (x_1972 list_33))
	(diseqlist_33 nil_33 (cons_33 x_1971 x_1972))))
(assert (forall ((x_1973 Int) (x_1974 list_33))
	(diseqlist_33 (cons_33 x_1973 x_1974) nil_33)))
(assert (forall ((x_1975 Int) (x_1976 list_33) (x_1977 Int) (x_1978 list_33))
	(=> (diseqInt x_1975 x_1977) (diseqlist_33 (cons_33 x_1975 x_1976) (cons_33 x_1977 x_1978)))))
(assert (forall ((x_1975 Int) (x_1976 list_33) (x_1977 Int) (x_1978 list_33))
	(=> (diseqlist_33 x_1976 x_1978) (diseqlist_33 (cons_33 x_1975 x_1976) (cons_33 x_1977 x_1978)))))
(declare-datatypes ((list_34 0)) (((nil_34) (cons_34 (head_67 pair_12) (tail_67 list_34)))))
(declare-fun diseqlist_34 (list_34 list_34) Bool)
(declare-fun head_69 (pair_12 list_34) Bool)
(declare-fun tail_69 (list_34 list_34) Bool)
(declare-fun isnil_34 (list_34) Bool)
(declare-fun iscons_34 (list_34) Bool)
(assert (forall ((x_1980 pair_12) (x_1981 list_34))
	(head_69 x_1980 (cons_34 x_1980 x_1981))))
(assert (forall ((x_1980 pair_12) (x_1981 list_34))
	(tail_69 x_1981 (cons_34 x_1980 x_1981))))
(assert (isnil_34 nil_34))
(assert (forall ((x_1983 pair_12) (x_1984 list_34))
	(iscons_34 (cons_34 x_1983 x_1984))))
(assert (forall ((x_1985 pair_12) (x_1986 list_34))
	(diseqlist_34 nil_34 (cons_34 x_1985 x_1986))))
(assert (forall ((x_1987 pair_12) (x_1988 list_34))
	(diseqlist_34 (cons_34 x_1987 x_1988) nil_34)))
(assert (forall ((x_1989 pair_12) (x_1990 list_34) (x_1991 pair_12) (x_1992 list_34))
	(=> (diseqpair_6 x_1989 x_1991) (diseqlist_34 (cons_34 x_1989 x_1990) (cons_34 x_1991 x_1992)))))
(assert (forall ((x_1989 pair_12) (x_1990 list_34) (x_1991 pair_12) (x_1992 list_34))
	(=> (diseqlist_34 x_1990 x_1992) (diseqlist_34 (cons_34 x_1989 x_1990) (cons_34 x_1991 x_1992)))))
(declare-fun diseqInt (Int Int) Bool)
(declare-fun projS_67 (Int Int) Bool)
(declare-fun isZ_69 (Int) Bool)
(declare-fun isS_69 (Int) Bool)
(assert (forall ((x_1994 Int))
	(projS_67 x_1994 (S_69 x_1994))))
(assert (isZ_69 Z_196))
(assert (forall ((x_1996 Int))
	(isS_69 (S_69 x_1996))))
(assert (forall ((x_1997 Int))
	(diseqInt Z_196 (S_69 x_1997))))
(assert (forall ((x_1998 Int))
	(diseqInt (S_69 x_1998) Z_196)))
(assert (forall ((x_1999 Int) (x_2000 Int))
	(=> (diseqInt x_1999 x_2000) (diseqInt (S_69 x_1999) (S_69 x_2000)))))
(declare-fun zip_6 (list_34 list_33 list_33) Bool)
(assert (forall ((x_1928 list_34) (x_1918 Int) (x_1919 list_33) (z_197 Int) (x_1917 list_33))
	(=> (zip_6 x_1928 x_1917 x_1919) (zip_6 (cons_34 (pair_13 z_197 x_1918) x_1928) (cons_33 z_197 x_1917) (cons_33 x_1918 x_1919)))))
(assert (forall ((z_197 Int) (x_1917 list_33))
	(zip_6 nil_34 (cons_33 z_197 x_1917) nil_33)))
(assert (forall ((y_153 list_33))
	(zip_6 nil_34 nil_33 y_153)))
(declare-fun len_7 (Int list_33) Bool)
(assert (forall ((x_1932 Int) (y_154 Int) (xs_52 list_33))
	(=> (len_7 x_1932 xs_52) (len_7 (S_69 x_1932) (cons_33 y_154 xs_52)))))
(assert (len_7 Z_196 nil_33))
(declare-fun x_1921 (list_33 list_33 list_33) Bool)
(assert (forall ((x_1935 list_33) (z_198 Int) (xs_53 list_33) (y_155 list_33))
	(=> (x_1921 x_1935 xs_53 y_155) (x_1921 (cons_33 z_198 x_1935) (cons_33 z_198 xs_53) y_155))))
(assert (forall ((x_1936 list_33))
	(x_1921 x_1936 nil_33 x_1936)))
(declare-fun rev_2 (list_33 list_33) Bool)
(assert (forall ((x_1937 list_33) (x_1938 list_33) (y_156 Int) (xs_54 list_33))
	(=> (and (rev_2 x_1938 xs_54) (x_1921 x_1937 x_1938 (cons_33 y_156 nil_33))) (rev_2 x_1937 (cons_33 y_156 xs_54)))))
(assert (rev_2 nil_33 nil_33))
(declare-fun x_1924 (list_34 list_34 list_34) Bool)
(assert (forall ((x_1942 list_34) (z_199 pair_12) (xs_55 list_34) (y_157 list_34))
	(=> (x_1924 x_1942 xs_55 y_157) (x_1924 (cons_34 z_199 x_1942) (cons_34 z_199 xs_55) y_157))))
(assert (forall ((x_1943 list_34))
	(x_1924 x_1943 nil_34 x_1943)))
(declare-fun rev_3 (list_34 list_34) Bool)
(assert (forall ((x_1944 list_34) (x_1945 list_34) (y_158 pair_12) (xs_56 list_34))
	(=> (and (rev_3 x_1945 xs_56) (x_1924 x_1944 x_1945 (cons_34 y_158 nil_34))) (rev_3 x_1944 (cons_34 y_158 xs_56)))))
(assert (rev_3 nil_34 nil_34))
(assert (forall ((x_1953 Int) (x_1948 list_33) (x_1949 list_33) (x_1950 list_34) (x_1951 list_34) (x_1952 list_34) (xs_57 list_33) (ys_19 list_33))
	(=> (and true (diseqlist_34 x_1950 x_1952) (len_7 x_1953 xs_57) (len_7 x_1953 ys_19) (rev_2 x_1948 xs_57) (rev_2 x_1949 ys_19) (zip_6 x_1950 x_1948 x_1949) (zip_6 x_1951 xs_57 ys_19) (rev_3 x_1952 x_1951)) false)))
(check-sat)
